&control
    calculation= 'scf'
    restart_mode= 'from_scratch'
    prefix='silicon'
    tstress= .true.
    tprnfor= .true.
    pseudo_dir= './'
    outdir= './'
 /
 &system
    ibrav= 2 
    celldm(1)= 10.330495
    nat= 2
    ntyp= 1
    ecutwfc= 65.0
    nbnd= 56
    nosym= .true.
 /
 &electrons
    diagonalization= 'david'
    mixing_mode= 'plain'
    mixing_beta= 0.7
    conv_thr= 1.0d-8
    diago_full_acc= .true.
 /
ATOMIC_SPECIES
 Si  28.086  Si.pbe-n-rrkjus_psl.0.1.UPF
ATOMIC_POSITIONS
 Si 0.00 0.00 0.00
 Si 0.25 0.25 0.25
K_POINTS crystal
           77
 0.000000 	 0.000000 	 0.000000    	    0.02597403
 0.000000 	 0.500000 	 0.500000    	    0.02597403
 0.500000 	 0.000000 	 0.500000    	    0.02597403
 0.500000 	 0.500000 	 0.000000    	    0.02597403
 0.000000 	 -0.500000 	 -0.500000    	    0.02597403
 -0.500000 	 0.000000 	 -0.500000    	    0.02597403
 -0.500000 	 -0.500000 	 0.000000    	    0.02597403
 0.000000 	 0.500000 	 -0.500000    	    0.02597403
 0.000000 	 -0.500000 	 0.500000    	    0.02597403
 0.500000 	 0.000000 	 -0.500000    	    0.02597403
 -0.500000 	 0.000000 	 0.500000    	    0.02597403
 0.500000 	 -0.500000 	 0.000000    	    0.02597403
 -0.500000 	 0.500000 	 0.000000    	    0.02597403
 -0.750000 	 -0.750000 	 -0.750000    	    0.02597403
 -0.750000 	 -0.750000 	 -0.250000    	    0.02597403
 -0.750000 	 -0.750000 	 0.250000    	    0.02597403
 -0.750000 	 -0.750000 	 0.750000    	    0.02597403
 -0.750000 	 -0.250000 	 -0.750000    	    0.02597403
 -0.750000 	 -0.250000 	 -0.250000    	    0.02597403
 -0.750000 	 -0.250000 	 0.250000    	    0.02597403
 -0.750000 	 -0.250000 	 0.750000    	    0.02597403
 -0.750000 	 0.250000 	 -0.750000    	    0.02597403
 -0.750000 	 0.250000 	 -0.250000    	    0.02597403
 -0.750000 	 0.250000 	 0.250000    	    0.02597403
 -0.750000 	 0.250000 	 0.750000    	    0.02597403
 -0.750000 	 0.750000 	 -0.750000    	    0.02597403
 -0.750000 	 0.750000 	 -0.250000    	    0.02597403
 -0.750000 	 0.750000 	 0.250000    	    0.02597403
 -0.750000 	 0.750000 	 0.750000    	    0.02597403
 -0.250000 	 -0.750000 	 -0.750000    	    0.02597403
 -0.250000 	 -0.750000 	 -0.250000    	    0.02597403
 -0.250000 	 -0.750000 	 0.250000    	    0.02597403
 -0.250000 	 -0.750000 	 0.750000    	    0.02597403
 -0.250000 	 -0.250000 	 -0.750000    	    0.02597403
 -0.250000 	 -0.250000 	 -0.250000    	    0.02597403
 -0.250000 	 -0.250000 	 0.250000    	    0.02597403
 -0.250000 	 -0.250000 	 0.750000    	    0.02597403
 -0.250000 	 0.250000 	 -0.750000    	    0.02597403
 -0.250000 	 0.250000 	 -0.250000    	    0.02597403
 -0.250000 	 0.250000 	 0.250000    	    0.02597403
 -0.250000 	 0.250000 	 0.750000    	    0.02597403
 -0.250000 	 0.750000 	 -0.750000    	    0.02597403
 -0.250000 	 0.750000 	 -0.250000    	    0.02597403
 -0.250000 	 0.750000 	 0.250000    	    0.02597403
 -0.250000 	 0.750000 	 0.750000    	    0.02597403
 0.250000 	 -0.750000 	 -0.750000    	    0.02597403
 0.250000 	 -0.750000 	 -0.250000    	    0.02597403
 0.250000 	 -0.750000 	 0.250000    	    0.02597403
 0.250000 	 -0.750000 	 0.750000    	    0.02597403
 0.250000 	 -0.250000 	 -0.750000    	    0.02597403
 0.250000 	 -0.250000 	 -0.250000    	    0.02597403
 0.250000 	 -0.250000 	 0.250000    	    0.02597403
 0.250000 	 -0.250000 	 0.750000    	    0.02597403
 0.250000 	 0.250000 	 -0.750000    	    0.02597403
 0.250000 	 0.250000 	 -0.250000    	    0.02597403
 0.250000 	 0.250000 	 0.250000    	    0.02597403
 0.250000 	 0.250000 	 0.750000    	    0.02597403
 0.250000 	 0.750000 	 -0.750000    	    0.02597403
 0.250000 	 0.750000 	 -0.250000    	    0.02597403
 0.250000 	 0.750000 	 0.250000    	    0.02597403
 0.250000 	 0.750000 	 0.750000    	    0.02597403
 0.750000 	 -0.750000 	 -0.750000    	    0.02597403
 0.750000 	 -0.750000 	 -0.250000    	    0.02597403
 0.750000 	 -0.750000 	 0.250000    	    0.02597403
 0.750000 	 -0.750000 	 0.750000    	    0.02597403
 0.750000 	 -0.250000 	 -0.750000    	    0.02597403
 0.750000 	 -0.250000 	 -0.250000    	    0.02597403
 0.750000 	 -0.250000 	 0.250000    	    0.02597403
 0.750000 	 -0.250000 	 0.750000    	    0.02597403
 0.750000 	 0.250000 	 -0.750000    	    0.02597403
 0.750000 	 0.250000 	 -0.250000    	    0.02597403
 0.750000 	 0.250000 	 0.250000    	    0.02597403
 0.750000 	 0.250000 	 0.750000    	    0.02597403
 0.750000 	 0.750000 	 -0.750000    	    0.02597403
 0.750000 	 0.750000 	 -0.250000    	    0.02597403
 0.750000 	 0.750000 	 0.250000    	    0.02597403
 0.750000 	 0.750000 	 0.750000    	    0.02597403
